1 6
2 5
3 6
4 20
5 8
6 19
7 4
8 16
9 5
10 5
11 17
12 23
13 23
14 3
15 19
16 7
17 20
18 9
19 10
20 9
21 9
22 11
23 11
24 11
25 12
26 12
27 12
28 12
29 19
30 13
31 23
32 21
33 9
34 10
35 8
36 12
37 12
38 12
39 12
40 20
41 8
42 4
43 24
44 9
45 21
46 13
47 14
48 13
49 6
50 14
51 1
52 13
53 12
54 21
55 15
56 1
57 11
58 16
59 7
60 14
61 15
62 24
63 8
64 9
65 23
66 24
67 3
68 9
69 20
70 7
71 7
72 8
73 4
74 23
75 19
76 10
77 4
78 1
79 24
80 23
81 1
82 1
83 1
84 20
85 1
86 1
87 2
88 1
89 2
90 1
91 1
92 3
93 17
94 23
95 8
96 5
97 4
98 4
99 24
100 21
101 22
102 22
103 21
104 6
105 9
106 3
107 5
108 18
109 19
110 18
111 23
112 22
113 17
114 3
115 23
116 7
117 23
118 22
119 21
120 22
121 3
122 4
123 21
124 19
125 16
126 20
127 20
128 22
129 17
130 15
131 16
132 7
133 15
134 1
135 1
136 2
137 15
138 15
139 10
140 18
141 7
142 24
143 24
144 20
145 22
146 23
147 4
148 21
149 18
150 3
151 22
152 18
153 17
154 17
155 4
156 9
157 18
158 12
159 6
160 6
161 13
162 24
163 24
164 5
165 18
166 5
167 4
168 19
169 9
170 14
171 21
172 6
173 8
174 6
175 4
176 6
177 21
178 23
179 21
180 19
181 18
182 21
183 4
184 3
185 21
186 3
187 6
188 18
189 23
190 23
